;symbolic execution tree
(push)
(assert (le x0 java.lang.Object))
(check-sat)
(push)
(assert (le x1 java.lang.Object))
(check-sat)
(push)
(assert (= x1 java.lang.StringBuffer))
(check-sat)
(push)
(assert (= x1 java.lang.StringBuffer))
(check-sat)
(push)
(assert (= x0 java.lang.StringBuffer))
(check-sat)
(pop)
(push)
(assert (not (= x0 java.lang.StringBuffer)))
(check-sat)
(pop)
(push)
(assert (le x0 com.lowagie.text.pdf.PdfString))
(check-sat)
(pop)
(push)
(assert (not (le x0 com.lowagie.text.pdf.PdfString)))
(check-sat)
(pop)
(push)
(assert (= x1 java.lang.StringBuffer))
(check-sat)
(pop)
(push)
(assert (not (= x1 java.lang.StringBuffer)))
(check-sat)
(pop)
(push)
(assert (= x0 java.lang.StringBuffer))
(check-sat)
(push)
(assert (= x0 java.lang.StringBuffer))
(check-sat)
(push)
(assert (= x0 java.lang.StringBuffer))
(check-sat)
(pop)
(push)
(assert (not (= x0 java.lang.StringBuffer)))
(check-sat)
(pop)
(pop)
(push)
(assert (not (= x0 java.lang.StringBuffer)))
(check-sat)
(pop)
(pop)
(push)
(assert (not (= x0 java.lang.StringBuffer)))
(check-sat)
(pop)
(push)
(assert (= x0 java.lang.String))
(check-sat)
(push)
(assert (= x0 java.lang.String))
(check-sat)
(push)
(assert (= x0 java.lang.String))
(check-sat)
(pop)
(push)
(assert (not (= x0 java.lang.String)))
(check-sat)
(pop)
(pop)
(push)
(assert (not (= x0 java.lang.String)))
(check-sat)
(pop)
(push)
(assert (= x0 java.lang.String))
(check-sat)
(push)
(assert (= x1 java.lang.StringBuffer))
(check-sat)
(pop)
(push)
(assert (not (= x1 java.lang.StringBuffer)))
(check-sat)
(pop)
(pop)
(push)
(assert (not (= x0 java.lang.String)))
(check-sat)
(pop)
(push)
(assert (= x0 java.lang.String))
(check-sat)
(pop)
(push)
(assert (not (= x0 java.lang.String)))
(check-sat)
(pop)
(pop)
(push)
(assert (not (= x0 java.lang.String)))
(check-sat)
(pop)
(push)
(assert (= x1 java.lang.StringBuffer))
(check-sat)
(push)
(assert (= x1 java.lang.StringBuffer))
(check-sat)
(push)
(assert (= x1 java.lang.StringBuffer))
(check-sat)
(pop)
(push)
(assert (not (= x1 java.lang.StringBuffer)))
(check-sat)
(pop)
(pop)
(push)
(assert (not (= x1 java.lang.StringBuffer)))
(check-sat)
(pop)
(push)
(assert (= x1 java.lang.StringBuffer))
(check-sat)
(pop)
(push)
(assert (not (= x1 java.lang.StringBuffer)))
(check-sat)
(pop)
(pop)
(push)
(assert (not (= x1 java.lang.StringBuffer)))
(check-sat)
(pop)
(push)
(assert (= x1 java.lang.StringBuffer))
(check-sat)
(push)
(assert (le x0 java.util.LinkedList))
(check-sat)
(pop)
(push)
(assert (not (le x0 java.util.LinkedList)))
(check-sat)
(pop)
(pop)
(push)
(assert (not (= x1 java.lang.StringBuffer)))
(check-sat)
(pop)
(push)
(assert (= x1 java.lang.StringBuffer))
(check-sat)
(pop)
(push)
(assert (not (= x1 java.lang.StringBuffer)))
(check-sat)
(pop)
(pop)
(push)
(assert (not (= x1 java.lang.StringBuffer)))
(check-sat)
(pop)
(push)
(assert (= x0 java.lang.StringBuffer))
(check-sat)
(push)
(assert (= x0 java.lang.StringBuffer))
(check-sat)
(pop)
(push)
(assert (not (= x0 java.lang.StringBuffer)))
(check-sat)
(pop)
(pop)
(push)
(assert (not (= x0 java.lang.StringBuffer)))
(check-sat)
(pop)
(push)
(assert (= x0 java.lang.String))
(check-sat)
(pop)
(push)
(assert (not (= x0 java.lang.String)))
(check-sat)
(pop)
(push)
(assert (= x0 java.lang.String))
(check-sat)
(push)
(assert (= x1 java.lang.StringBuffer))
(check-sat)
(pop)
(push)
(assert (not (= x1 java.lang.StringBuffer)))
(check-sat)
(pop)
(push)
(assert (= x1 java.lang.StringBuffer))
(check-sat)
(push)
(assert (= x1 java.lang.StringBuffer))
(check-sat)
(pop)
(push)
(assert (not (= x1 java.lang.StringBuffer)))
(check-sat)
(pop)
(push)
(assert (= x0 java.lang.String))
(check-sat)
(pop)
(push)
(assert (not (= x0 java.lang.String)))
(check-sat)
(pop)
(pop)
(push)
(assert (not (= x1 java.lang.StringBuffer)))
(check-sat)
(pop)
(push)
(assert (= x1 java.lang.StringBuffer))
(check-sat)
(pop)
(push)
(assert (not (= x1 java.lang.StringBuffer)))
(check-sat)
(pop)
(push)
(assert (= x1 java.lang.StringBuffer))
(check-sat)
(pop)
(push)
(assert (not (= x1 java.lang.StringBuffer)))
(check-sat)
(pop)
(pop)
(push)
(assert (not (= x0 java.lang.String)))
(check-sat)
(pop)
(push)
(assert (= x1 java.lang.StringBuffer))
(check-sat)
(push)
(assert (= x1 java.lang.StringBuffer))
(check-sat)
(push)
(assert (= x0 java.lang.String))
(check-sat)
(pop)
(push)
(assert (not (= x0 java.lang.String)))
(check-sat)
(pop)
(pop)
(push)
(assert (not (= x1 java.lang.StringBuffer)))
(check-sat)
(pop)
(pop)
(push)
(assert (not (= x1 java.lang.StringBuffer)))
(check-sat)
(pop)
(push)
(assert (le x0 java.util.Vector))
(check-sat)
(pop)
(push)
(assert (not (le x0 com.lowagie.text.Phrase)))
(check-sat)
(push)
(assert (not (le x0 org.dom4j.tree.BackedList)))
(check-sat)
(push)
(assert (not (le x0 com.lowagie.text.Section)))
(check-sat)
(push)
(assert (le x0 java.util.ArrayList))
(check-sat)
(push)
(assert (= x1 java.lang.StringBuffer))
(check-sat)
(pop)
(push)
(assert (not (= x1 java.lang.StringBuffer)))
(check-sat)
(pop)
(pop)
(pop)
(pop)
(pop)
(push)
(assert (le x0 java.util.TreeSet))
(check-sat)
(push)
(assert (le x0 java.util.ArrayList))
(check-sat)
(push)
(assert (= x1 java.lang.StringBuffer))
(check-sat)
(push)
(assert (= x1 java.lang.StringBuffer))
(check-sat)
(pop)
(push)
(assert (not (= x1 java.lang.StringBuffer)))
(check-sat)
(pop)
(push)
(assert (= x1 java.lang.StringBuffer))
(check-sat)
(pop)
(push)
(assert (not (= x1 java.lang.StringBuffer)))
(check-sat)
(pop)
(pop)
(push)
(assert (not (= x1 java.lang.StringBuffer)))
(check-sat)
(pop)
(pop)
(push)
(assert (not (le x0 java.util.ArrayList)))
(check-sat)
(pop)
(push)
(assert (le x0 java.util.ArrayList))
(check-sat)
(push)
(assert (le x0 java.util.ArrayList))
(check-sat)
(pop)
(push)
(assert (not (le x0 java.util.ArrayList)))
(check-sat)
(pop)
(push)
(assert (not (le x0 java.util.AbstractList)))
(check-sat)
(push)
(assert (le x0 java.util.AbstractCollection))
(check-sat)
(pop)
(pop)
(push)
(assert (le x0 java.util.TreeSet))
(check-sat)
(pop)
(push)
(assert (not (le x0 java.util.AbstractSequentialList)))
(check-sat)
(push)
(assert (le x0 java.util.AbstractList))
(check-sat)
(pop)
(pop)
(push)
(assert (le x0 java.util.AbstractSequentialList))
(check-sat)
(pop)
(push)
(assert (le x0 java.util.HashSet))
(check-sat)
(pop)
(pop)
(push)
(assert (not (le x0 java.util.ArrayList)))
(check-sat)
(pop)
(pop)
(push)
(assert (le x0 com.lowagie.text.Section))
(check-sat)
(pop)
(push)
(assert (le x0 org.dom4j.tree.BackedList))
(check-sat)
(pop)
(push)
(assert (le x0 java.util.AbstractCollection))
(check-sat)
(push)
(assert (= x1 java.lang.StringBuffer))
(check-sat)
(push)
(assert (le x0 java.util.ArrayList))
(check-sat)
(pop)
(push)
(assert (not (le x0 java.util.ArrayList)))
(check-sat)
(pop)
(push)
(assert (le x0 java.util.ArrayList))
(check-sat)
(push)
(assert (le x0 java.util.ArrayList))
(check-sat)
(pop)
(push)
(assert (not (le x0 java.util.ArrayList)))
(check-sat)
(pop)
(pop)
(push)
(assert (not (le x0 java.util.ArrayList)))
(check-sat)
(pop)
(push)
(assert (= x1 java.lang.StringBuffer))
(check-sat)
(push)
(assert (le x0 java.util.ArrayList))
(check-sat)
(pop)
(push)
(assert (not (le x0 java.util.ArrayList)))
(check-sat)
(pop)
(push)
(assert (= x1 java.lang.StringBuffer))
(check-sat)
(pop)
(push)
(assert (not (= x1 java.lang.StringBuffer)))
(check-sat)
(pop)
(pop)
(push)
(assert (not (= x1 java.lang.StringBuffer)))
(check-sat)
(pop)
(pop)
(push)
(assert (not (= x1 java.lang.StringBuffer)))
(check-sat)
(pop)
(pop)
(push)
(assert (le x0 java.util.LinkedList))
(check-sat)
(push)
(assert (le x0 java.util.ArrayList))
(check-sat)
(push)
(assert (le x0 java.util.Vector))
(check-sat)
(pop)
(push)
(assert (not (le x0 com.lowagie.text.Phrase)))
(check-sat)
(push)
(assert (not (le x0 org.dom4j.tree.BackedList)))
(check-sat)
(push)
(assert (not (le x0 com.lowagie.text.Section)))
(check-sat)
(push)
(assert (le x0 java.util.ArrayList))
(check-sat)
(pop)
(pop)
(pop)
(pop)
(push)
(assert (le x0 com.lowagie.text.Cell))
(check-sat)
(pop)
(push)
(assert (not (le x0 java.util.AbstractList)))
(check-sat)
(push)
(assert (le x0 java.util.AbstractCollection))
(check-sat)
(pop)
(pop)
(push)
(assert (not (le x0 java.util.ArrayList)))
(check-sat)
(push)
(assert (not (le x0 org.dom4j.tree.ContentListFacade)))
(check-sat)
(push)
(assert (le x0 java.util.AbstractList))
(check-sat)
(push)
(assert (not (le x0 java.util.Vector)))
(check-sat)
(pop)
(pop)
(pop)
(pop)
(push)
(assert (le x0 java.util.TreeSet))
(check-sat)
(pop)
(push)
(assert (le x0 java.util.HashSet))
(check-sat)
(pop)
(push)
(assert (le x0 com.lowagie.text.Section))
(check-sat)
(pop)
(push)
(assert (le x0 org.dom4j.tree.BackedList))
(check-sat)
(pop)
(push)
(assert (le x0 com.lowagie.text.Phrase))
(check-sat)
(pop)
(push)
(assert (le x0 java.util.LinkedList))
(check-sat)
(pop)
(push)
(assert (le x0 org.dom4j.tree.ContentListFacade))
(check-sat)
(pop)
(pop)
(push)
(assert (not (le x0 java.util.ArrayList)))
(check-sat)
(pop)
(pop)
(push)
(assert (le x0 com.lowagie.text.Phrase))
(check-sat)
(pop)
(push)
(assert (le x0 org.dom4j.tree.ContentListFacade))
(check-sat)
(pop)
(pop)
(push)
(assert (not (= x1 java.lang.StringBuffer)))
(check-sat)
(pop)
